205 209 210 211 212 213 214 215 216 217 223 224 222 221 220 218 219 193 192 191 190 226 225 189 227 228 229 230 231 233 232 234 235 236 528 529 530 531 532 533 534 488 489 490 491 492 493 524 494 495 472 473 474 471 470 469 468 467 466 465 464 463 462 461 460 459 458 457 456 455 454 439 443 444 445 442 446 447 448 449 450 441 440 453 452 499 500 501 451 312 313 311 310 309 308 505 504 503 502 498 497 496 519 518 520 521 522 523 525 526 527 517 516 515 514 513 512 511 510 509 237 240 239 238 246 247 245 244 243 242 241 248 249 250 251 252 254 253 255 256 257 260 261 259 258 262 263 264 265 266 298 299 300 301 302 508 507 506 307 303 304 306 305 318 317 319 320 321 297 296 295 294 293 270 267 271 268 269 272 273 274 275 292 291 290 289 288 276 277 278 279 282 281 280 287 286 285 284 283 334 335 336 337 338 339 333 332 331 330 340 341 343 344 345 346 364 399 398 397 394 391 392 393 395 396 371 372 370 369 368 367 365 342 366 329 328 327 326 325 324 323 322 373 374 375 315 316 314 377 376 379 378 380 381 390 389 388 387 386 382 385 383 384 409 404 405 408 407 406 400 403 402 401 360 359 358 361 363 362 347 348 349 350 351 352 353 354 355 357 356 412 411 410 418 417 413 414 415 416 419 420 421 422 423 424 425 426 427 428 429 431 430 432 433 434 435 436 438 437 3 2 1 4 0 5 573 572 571 570 569 568 20 19 18 17 8 7 6 9 10 11 16 15 14 13 12 23 21 24 25 26 27 28 29 22 31 30 32 36 37 38 35 33 34 558 559 550 551 101 102 100 99 98 96 95 97 94 93 92 91 555 554 553 552 556 557 41 40 39 42 43 44 45 46 47 48 49 54 55 56 53 52 50 51 84 83 82 85 86 87 90 89 88 78 62 79 80 81 57 58 59 60 61 63 64 67 66 65 72 71 123 122 117 121 120 119 73 74 75 76 77 118 106 105 104 103 547 543 544 545 546 548 549 560 561 562 563 564 565 566 567 475 476 477 478 479 480 481 482 483 484 485 486 487 535 536 537 539 538 540 187 188 186 182 183 185 184 194 195 196 197 198 199 200 201 166 167 163 168 162 160 161 113 112 114 111 110 172 170 171 169 180 181 179 178 177 176 175 174 173 108 109 541 542 107 115 116 128 127 126 125 124 70 68 69 138 129 130 131 132 133 134 135 136 137 139 140 141 151 150 149 152 148 147 153 146 142 143 144 145 158 157 159 156 155 154 164 165 203 204 202 208 207 206